(set-logic ALL)
(declare-fun i1 () Int)
(declare-fun it10 () Int)
(declare-fun it144 () Int)
(declare-fun it928 () Int)
(declare-fun it929 () Int)
(declare-fun it930 () Int)
(declare-fun it931 () Int)
(declare-fun it932 () Int)
(declare-fun it6 () Int)
(declare-fun it933 () Int)
(declare-fun it192 () Int)
(declare-fun it15 () Int)
(declare-fun it937 () Int)
(declare-fun it938 () Int)
(declare-fun it939 () Int)
(declare-fun it940 () Int)
(declare-fun it941 () Int)
(declare-fun it11 () Int)
(declare-fun it942 () Int)
(declare-fun it20 () Int)
(declare-fun it947 () Int)
(declare-fun it948 () Int)
(declare-fun it949 () Int)
(declare-fun it950 () Int)
(declare-fun it17 () Int)
(declare-fun it951 () Int)
(declare-fun it16 () Int)
(declare-fun it952 () Int)
(declare-fun it25 () Int)
(declare-fun it223 () Int)
(declare-fun it956 () Int)
(declare-fun it957 () Int)
(declare-fun it958 () Int)
(declare-fun it959 () Int)
(declare-fun it22 () Int)
(declare-fun it960 () Int)
(declare-fun it961 () Int)
(declare-fun it21 () Int)
(declare-fun it30 () Int)
(declare-fun it975 () Int)
(declare-fun it976 () Int)
(declare-fun it977 () Int)
(declare-fun it978 () Int)
(declare-fun it27 () Int)
(declare-fun it979 () Int)
(declare-fun it26 () Int)
(declare-fun it980 () Int)
(declare-fun it255 () Int)
(declare-fun it35 () Int)
(declare-fun it984 () Int)
(declare-fun it985 () Int)
(declare-fun it986 () Int)
(declare-fun it987 () Int)
(declare-fun it32 () Int)
(declare-fun it988 () Int)
(declare-fun it31 () Int)
(declare-fun it989 () Int)
(declare-fun it47 () Int)
(declare-fun it49 () Int)
(declare-fun it50 () Int)
(declare-fun it994 () Int)
(declare-fun it995 () Int)
(declare-fun it996 () Int)
(declare-fun it997 () Int)
(declare-fun it998 () Int)
(declare-fun it999 () Int)
(declare-fun it107 () Int)
(declare-fun it1343 () Int)
(declare-fun it1347 () Int)
(declare-fun it1348 () Int)
(declare-fun it1349 () Int)
(declare-fun it1350 () Int)
(declare-fun it1351 () Int)
(declare-fun it1352 () Int)
(declare-fun it54 () Int)
(declare-fun it1355 () Int)
(declare-fun it1356 () Int)
(declare-fun it1357 () Int)
(declare-fun it1358 () Int)
(declare-fun it1359 () Int)
(declare-fun it51 () Int)
(declare-fun it1360 () Int)
(declare-fun it64 () Int)
(declare-fun it387 () Int)
(declare-fun it1363 () Int)
(declare-fun it1364 () Int)
(declare-fun it1365 () Int)
(declare-fun it1366 () Int)
(declare-fun it1367 () Int)
(declare-fun it61 () Int)
(declare-fun it1368 () Int)
(declare-fun it85 () Int)
(declare-fun it1372 () Int)
(declare-fun it1373 () Int)
(declare-fun it1374 () Int)
(declare-fun it1375 () Int)
(declare-fun it1376 () Int)
(declare-fun it1377 () Int)
(declare-fun it105 () Int)
(declare-fun it102 () Int)
(declare-fun it104 () Int)
(assert (and (> (+ it144 1) 0) (> it10 0) (= (+ i1 (- 13)) 0)))
(assert (= (+ it928 (- 2)) 0))
(assert (= (+ it929 (* it10 (- 1))) 0))
(assert (= (+ it930 (- 2)) 0))
(assert (= it931 0))
(assert (= (+ it932 (* it144 (- 1))) 0))
(assert (= (+ it933 (* it6 (- 1))) 0))
(assert (and (> it15 0)
     (> (+ it932 (* it931 (- 1))) 0)
     (>= (+ it928 (- 2)) 0)
     (> (+ it930 (- 1)) 0)
     (> (+ it932 1) 0)
     (>= (+ it929 (* it15 (- 1))) 0)
     (> (+ it932 (* it192 (- 1)) (* it931 (- 1)) 1) 0)
     (>= (+ (* it928 (- 1)) 2) 0)
     (> it929 0)
     (>= (+ it192 (- 1)) 0)))
(assert (= (+ it937 (* it928 (- 1))) 0))
(assert (= (+ (* it15 (- 1)) it938) 0))
(assert (= (+ (+ 0 it939) (* (exp 2 it192) (+ 0 it930) (+ 0 (- 1))))
   (+ 0 0)))
(assert (= (+ (* it192 (- 1)) it940 (* it931 (- 1))) 0))
(assert (= (+ (* it932 (- 1)) it941) 0))
(assert (= (+ it942 (* it11 (- 1))) 0))
(assert (and (> it20 0)
     (>= (+ it938 (* it20 (- 1))) 0)
     (> (+ it939 1) 0)
     (> it938 0)
     (<= (+ (* it940 (- 1)) it941) 0)
     (= (+ it937 (- 2)) 0)))
(assert (= (+ it947 (- 3)) 0))
(assert (= (+ it948 (* it20 (- 1))) 0))
(assert (= it949 0))
(assert (= (+ (* it939 (- 1)) it950) 0))
(assert (= (+ it951 (* it17 (- 1))) 0))
(assert (= (+ it952 (* it16 (- 1))) 0))
(assert (and (> it25 0)
     (> (+ (* it949 (- 1)) it950) 0)
     (> (+ it950 1) 0)
     (> (+ (* it949 (- 1)) (* it223 (- 1)) it950 1) 0)
     (> it948 0)
     (>= (+ it947 (- 3)) 0)
     (>= (+ it223 (- 1)) 0)
     (>= (+ (* it947 (- 1)) 3) 0)
     (>= (+ it948 (* it25 (- 1))) 0)
     (> (+ it949 1) 0)))
(assert (= (+ it956 (* it947 (- 1))) 0))
(assert (= (+ (* it25 (- 1)) it957) 0))
(assert (= (+ it958 (* it949 (- 1)) (* it223 (- 1))) 0))
(assert (= (+ it959 (* it950 (- 1))) 0))
(assert (= (+ it960 (* it22 (- 1))) 0))
(assert (= (+ (* it21 (- 1)) it961) 0))
(assert (and (> it30 0)
     (<= (+ it30 (* it957 (- 1))) 0)
     (<= (+ (* it958 (- 1)) it959) 0)
     (= (+ it956 (- 3)) 0)
     (> it957 0)
     (> it959 0)))
(assert (= (+ it975 (- 4)) 0))
(assert (= (+ it976 (* it30 (- 1))) 0))
(assert (= it977 0))
(assert (= (+ (* it959 (- 1)) it978) 0))
(assert (= (+ it979 (* it27 (- 1))) 0))
(assert (= (+ it980 (* it26 (- 1))) 0))
(assert (and (> it35 0)
     (> (+ (* it255 (- 1)) (* it977 (- 1)) it978 1) 0)
     (> (+ (* it977 (- 1)) it978) 0)
     (>= (+ it976 (* it35 (- 1))) 0)
     (>= (+ (* it975 (- 1)) 4) 0)
     (> (+ it978 (- 1)) 0)
     (> it976 0)
     (>= (+ it255 (- 1)) 0)
     (>= (+ it975 (- 4)) 0)))
(assert (= (+ it984 (* it975 (- 1))) 0))
(assert (= (+ (* it35 (- 1)) it985) 0))
(assert (= (+ it986 (* it255 (- 1)) (* it977 (- 1))) 0))
(assert (= (+ it987 (* it978 (- 1))) 0))
(assert (= (+ it988 (* it32 (- 1))) 0))
(assert (= (+ it989 (* it31 (- 1))) 0))
(assert (and (> it47 0)
     (> it49 0)
     (> it50 0)
     (<= (+ (* it986 (- 1)) it987) 0)
     (<= (+ it50 (* it985 (- 1))) 0)
     (<= (+ it49 (* it985 (- 1))) 0)
     (= (+ it984 (- 4)) 0)
     (> it985 0)
     (<= (+ it47 (* it985 (- 1))) 0)
     (> (+ it987 (- 1)) 0)))
(assert (= (+ it994 (- 6)) 0))
(assert (= (+ it995 (* it50 (- 1))) 0))
(assert (= (+ (* it49 (- 1)) it996) 0))
(assert (= it997 0))
(assert (= (+ it998 (* it47 (- 1))) 0))
(assert (= (+ it999 (* it987 (- 1))) 0))
(assert (let ((a!1 (> (+ (+ it999 (* it997 (- 1))) (- 1)) 0)))
  (and (> it107 0)
       (> it998 0)
       (> it999 0)
       (>= (+ it994 (- 6)) 0)
       (>= (+ it998 (- 1)) 0)
       (>= (+ it996 (- 1)) 0)
       a!1
       (>= (+ it996 (* it107 (- 1))) 0)
       (> (+ it999 (* it1343 (- 1)) (* it997 (- 1))) 0)
       (>= (+ it998 (* it107 (- 1))) 0)
       (>= (+ it1343 (- 1)) 0)
       (>= (+ (* it994 (- 1)) 6) 0)
       (> (+ it999 (- 1)) 0)
       (>= (+ it995 (* it107 (- 1))) 0)
       (>= (+ it995 (- 1)) 0)
       (= (+ (* it994 (- 1)) 6) 0)
       (> it995 0)
       (> it996 0)
       (> (+ it999 (* it997 (- 1))) 0)
       (> (+ it997 1) 0))))
(assert (= (+ it1347 (* it994 (- 1))) 0))
(assert (= (+ (* it107 (- 1)) it1348) 0))
(assert (= (+ it1349 (* it107 (- 1))) 0))
(assert (= (+ it1350 (* it1343 (- 1)) (* it997 (- 1))) 0))
(assert (= (+ (* it107 (- 1)) it1351) 0))
(assert (= (+ it1352 (* it999 (- 1))) 0))
(assert (and (> it54 0)
     (<= (+ (* it1349 (- 1)) it54) 0)
     (> it1349 0)
     (= (+ it1347 (- 6)) 0)
     (<= (+ it54 (* it1351 (- 1))) 0)
     (<= (+ it54 (* it1348 (- 1))) 0)
     (> it1351 0)
     (> it1348 0)
     (= (+ (* it1352 (- 1)) it1350 1) 0)
     (> it1352 0)))
(assert (= (+ it1355 (- 7)) 0))
(assert (= (+ (* it1352 (- 1)) it1356 1) 0))
(assert (= (+ it1357 (* it54 (- 1))) 0))
(assert (= it1358 0))
(assert (= (+ (* it1352 (- 1)) it1359) 0))
(assert (= (+ it1360 (* it51 (- 1))) 0))
(assert (and (> it64 0)
     (>= (+ (* it1355 (- 1)) 7) 0)
     (> (+ it1359 (* it387 (- 1)) (* it1358 (- 1)) 1) 0)
     (>= (+ it387 (- 1)) 0)
     (> (+ it1359 1) 0)
     (>= (+ it1355 (- 7)) 0)
     (>= (+ it1357 (* it64 (- 1))) 0)
     (> it1357 0)
     (> (+ it1359 (* it1358 (- 1))) 0)))
(assert (= (+ it1363 (* it1355 (- 1))) 0))
(assert (= (+ (* it1356 (- 1)) it1364) 0))
(assert (= (+ it1365 (* it64 (- 1))) 0))
(assert (= (+ (* it387 (- 1)) it1366 (* it1358 (- 1))) 0))
(assert (= (+ (* it1359 (- 1)) it1367) 0))
(assert (= (+ it1368 (* it61 (- 1))) 0))
(assert (and (> it85 0)
     (> it1365 0)
     (= (+ it1363 (- 7)) 0)
     (> (+ it1367 1) 0)
     (<= (+ (* it1365 (- 1)) it85) 0)
     (<= (+ (* it1366 (- 1)) it1367) 0)))
(assert (= (+ it1372 (- 9)) 0))
(assert (= (+ (* it85 (- 1)) it1373) 0))
(assert (= (+ (* it1364 (- 1)) it1374) 0))
(assert (= (+ it1375 (* it1364 (- 1))) 0))
(assert (= (+ it1376 (* it1364 (- 1))) 0))
(assert (= (+ (* it1367 (- 1)) it1377) 0))
(assert (and (> it105 0)
     (> it104 0)
     (> it102 0)
     (> (+ (* it1375 (- 1)) it1377) 0)
     (> it1373 0)
     (= (+ it1375 (* it1376 (- 1))) 0)
     (<= (+ it104 (* it1373 (- 1))) 0)
     (> (+ (* it1374 (- 1)) it1377) 0)
     (> (+ it1374 1) 0)
     (> (+ it1377 (- 1)) 0)
     (<= (+ (* it1373 (- 1)) it102) 0)
     (<= (+ (* it1373 (- 1)) it105) 0)
     (= (+ it1372 (- 9)) 0)))
(check-sat)
